10 965
525 7 482 7 367 7 213 9 31 11 790 18
525 7 446 7 267 7 66 9 891 11 731 18
525 7 445 7 264 7 63 9 889 11 721 18
525 7 445 7 264 7 63 9 889 11 721 18
525 7 445 7 264 7 63 9 889 11 721 18
525 7 502 7 412 7 255 9 80 11 874 18
525 7 502 7 412 7 255 9 80 11 874 18
525 7 502 7 412 7 255 9 80 11 874 18
525 7 502 7 412 7 255 9 80 11 874 18
525 7 479 7 355 7 106 9 927 13
